165
0 59 7 110 131 112 64 95 74 11 
105 90 52 77 89 53 35 155 153 114 
162 12 143 10 149 30 65 15 119 109 
54 13 48 43 123 84 88 122 42 103 
3 58 97 38 47 104 34 96 82 19 
145 63 79 156 80 94 86 22 36 136 
71 132 57 120 29 68 157 98 163 99 
50 107 6 46 113 164 159 73 130 28 
39 138 106 78 60 142 33 14 16 25 
72 128 69 20 56 87 147 127 31 129 
92 93 40 141 17 76 32 125 91 148 
66 140 137 121 115 154 26 152 134 101 
100 150 144 160 70 23 8 24 118 1 
124 2 49 111 126 161 55 133 139 41 
61 4 117 151 18 116 102 21 27 67 
62 45 146 9 5 108 83 51 135 158 
37 75 44 81 85 
